(set-info :smt-lib-version 2.6)
(set-logic QF_LRA)
(set-info :source |
TLP-GP automated DTP to SMT-LIB encoding for planning
by F.Maris and P.Regnier, IRIT - Universite Paul Sabatier, Toulouse

|)
(set-info :category "industrial")
(set-info :status sat)
(declare-fun St_spy_variable () Real)
(declare-fun t_Init_0 () Real)
(declare-fun t_Goal_61 () Real)
(declare-fun t_C_N19_57 () Real)
(declare-fun t_B_N19_56 () Real)
(declare-fun t_C_N18_54 () Real)
(declare-fun t_B_N18_53 () Real)
(declare-fun t_C_N17_51 () Real)
(declare-fun t_B_N17_50 () Real)
(declare-fun t_C_N16_48 () Real)
(declare-fun t_B_N16_47 () Real)
(declare-fun t_C_N15_45 () Real)
(declare-fun t_B_N15_44 () Real)
(declare-fun t_C_N14_42 () Real)
(declare-fun t_B_N14_41 () Real)
(declare-fun t_C_N13_39 () Real)
(declare-fun t_B_N13_38 () Real)
(declare-fun t_C_N12_36 () Real)
(declare-fun t_B_N12_35 () Real)
(declare-fun t_C_N11_33 () Real)
(declare-fun t_B_N11_32 () Real)
(declare-fun t_C_N10_30 () Real)
(declare-fun t_B_N10_29 () Real)
(declare-fun t_C_N9_27 () Real)
(declare-fun t_B_N9_26 () Real)
(declare-fun t_C_N8_24 () Real)
(declare-fun t_B_N8_23 () Real)
(declare-fun t_C_N7_21 () Real)
(declare-fun t_B_N7_20 () Real)
(declare-fun t_C_N6_18 () Real)
(declare-fun t_B_N6_17 () Real)
(declare-fun t_C_N5_15 () Real)
(declare-fun t_B_N5_14 () Real)
(declare-fun t_C_N4_12 () Real)
(declare-fun t_B_N4_11 () Real)
(declare-fun t_C_N3_9 () Real)
(declare-fun t_B_N3_8 () Real)
(declare-fun t_C_N2_6 () Real)
(declare-fun t_B_N2_5 () Real)
(declare-fun t_C_N1_3 () Real)
(declare-fun t_B_N1_2 () Real)
(declare-fun t_A_N1_1 () Real)
(declare-fun t_A_N2_4 () Real)
(declare-fun t_A_N3_7 () Real)
(declare-fun t_A_N4_10 () Real)
(declare-fun t_A_N5_13 () Real)
(declare-fun t_A_N6_16 () Real)
(declare-fun t_A_N7_19 () Real)
(declare-fun t_A_N8_22 () Real)
(declare-fun t_A_N9_25 () Real)
(declare-fun t_A_N10_28 () Real)
(declare-fun t_A_N11_31 () Real)
(declare-fun t_A_N12_34 () Real)
(declare-fun t_A_N13_37 () Real)
(declare-fun t_A_N14_40 () Real)
(declare-fun t_A_N15_43 () Real)
(declare-fun t_A_N16_46 () Real)
(declare-fun t_A_N17_49 () Real)
(declare-fun t_A_N18_52 () Real)
(declare-fun t_A_N19_55 () Real)
(declare-fun t_A_N20_58 () Real)
(declare-fun t_B_N20_59 () Real)
(declare-fun t_C_N20_60 () Real)
(assert (let ((?v_56 (- t_Goal_61 t_C_N19_57)) (?v_55 (- t_Goal_61 t_B_N19_56)) (?v_53 (- t_Goal_61 t_C_N18_54)) (?v_52 (- t_Goal_61 t_B_N18_53)) (?v_50 (- t_Goal_61 t_C_N17_51)) (?v_49 (- t_Goal_61 t_B_N17_50)) (?v_47 (- t_Goal_61 t_C_N16_48)) (?v_46 (- t_Goal_61 t_B_N16_47)) (?v_44 (- t_Goal_61 t_C_N15_45)) (?v_43 (- t_Goal_61 t_B_N15_44)) (?v_41 (- t_Goal_61 t_C_N14_42)) (?v_40 (- t_Goal_61 t_B_N14_41)) (?v_38 (- t_Goal_61 t_C_N13_39)) (?v_37 (- t_Goal_61 t_B_N13_38)) (?v_35 (- t_Goal_61 t_C_N12_36)) (?v_34 (- t_Goal_61 t_B_N12_35)) (?v_32 (- t_Goal_61 t_C_N11_33)) (?v_31 (- t_Goal_61 t_B_N11_32)) (?v_29 (- t_Goal_61 t_C_N10_30)) (?v_28 (- t_Goal_61 t_B_N10_29)) (?v_26 (- t_Goal_61 t_C_N9_27)) (?v_25 (- t_Goal_61 t_B_N9_26)) (?v_23 (- t_Goal_61 t_C_N8_24)) (?v_22 (- t_Goal_61 t_B_N8_23)) (?v_20 (- t_Goal_61 t_C_N7_21)) (?v_19 (- t_Goal_61 t_B_N7_20)) (?v_17 (- t_Goal_61 t_C_N6_18)) (?v_16 (- t_Goal_61 t_B_N6_17)) (?v_14 (- t_Goal_61 t_C_N5_15)) (?v_13 (- t_Goal_61 t_B_N5_14)) (?v_11 (- t_Goal_61 t_C_N4_12)) (?v_10 (- t_Goal_61 t_B_N4_11)) (?v_8 (- t_Goal_61 t_C_N3_9)) (?v_7 (- t_Goal_61 t_B_N3_8)) (?v_5 (- t_Goal_61 t_C_N2_6)) (?v_4 (- t_Goal_61 t_B_N2_5)) (?v_2 (- t_Goal_61 t_C_N1_3)) (?v_1 (- t_Goal_61 t_B_N1_2)) (?v_0 (- t_Goal_61 t_A_N1_1)) (?v_3 (- t_Goal_61 t_A_N2_4)) (?v_6 (- t_Goal_61 t_A_N3_7)) (?v_9 (- t_Goal_61 t_A_N4_10)) (?v_12 (- t_Goal_61 t_A_N5_13)) (?v_15 (- t_Goal_61 t_A_N6_16)) (?v_18 (- t_Goal_61 t_A_N7_19)) (?v_21 (- t_Goal_61 t_A_N8_22)) (?v_24 (- t_Goal_61 t_A_N9_25)) (?v_27 (- t_Goal_61 t_A_N10_28)) (?v_30 (- t_Goal_61 t_A_N11_31)) (?v_33 (- t_Goal_61 t_A_N12_34)) (?v_36 (- t_Goal_61 t_A_N13_37)) (?v_39 (- t_Goal_61 t_A_N14_40)) (?v_42 (- t_Goal_61 t_A_N15_43)) (?v_45 (- t_Goal_61 t_A_N16_46)) (?v_48 (- t_Goal_61 t_A_N17_49)) (?v_51 (- t_Goal_61 t_A_N18_52)) (?v_54 (- t_Goal_61 t_A_N19_55)) (?v_57 (- t_Goal_61 t_A_N20_58)) (?v_58 (- t_Goal_61 t_B_N20_59)) (?v_139 (- t_Goal_61 t_C_N20_60)) (?v_134 (- t_B_N1_2 t_A_N1_1))) (let ((?v_133 (< ?v_134 5)) (?v_132 (- t_C_N1_3 t_B_N1_2))) (let ((?v_131 (< ?v_132 4)) (?v_130 (- t_B_N2_5 t_A_N2_4))) (let ((?v_129 (< ?v_130 5)) (?v_128 (- t_C_N2_6 t_B_N2_5))) (let ((?v_127 (< ?v_128 4)) (?v_126 (- t_B_N3_8 t_A_N3_7))) (let ((?v_125 (< ?v_126 5)) (?v_124 (- t_C_N3_9 t_B_N3_8))) (let ((?v_123 (< ?v_124 4)) (?v_122 (- t_B_N4_11 t_A_N4_10))) (let ((?v_121 (< ?v_122 5)) (?v_120 (- t_C_N4_12 t_B_N4_11))) (let ((?v_119 (< ?v_120 4)) (?v_118 (- t_B_N5_14 t_A_N5_13))) (let ((?v_117 (< ?v_118 5)) (?v_116 (- t_C_N5_15 t_B_N5_14))) (let ((?v_115 (< ?v_116 4)) (?v_114 (- t_B_N6_17 t_A_N6_16))) (let ((?v_113 (< ?v_114 5)) (?v_112 (- t_C_N6_18 t_B_N6_17))) (let ((?v_111 (< ?v_112 4)) (?v_110 (- t_B_N7_20 t_A_N7_19))) (let ((?v_109 (< ?v_110 5)) (?v_108 (- t_C_N7_21 t_B_N7_20))) (let ((?v_107 (< ?v_108 4)) (?v_106 (- t_B_N8_23 t_A_N8_22))) (let ((?v_105 (< ?v_106 5)) (?v_104 (- t_C_N8_24 t_B_N8_23))) (let ((?v_103 (< ?v_104 4)) (?v_102 (- t_B_N9_26 t_A_N9_25))) (let ((?v_101 (< ?v_102 5)) (?v_100 (- t_C_N9_27 t_B_N9_26))) (let ((?v_99 (< ?v_100 4)) (?v_98 (- t_B_N10_29 t_A_N10_28))) (let ((?v_97 (< ?v_98 5)) (?v_96 (- t_C_N10_30 t_B_N10_29))) (let ((?v_95 (< ?v_96 4)) (?v_94 (- t_B_N11_32 t_A_N11_31))) (let ((?v_93 (< ?v_94 5)) (?v_92 (- t_C_N11_33 t_B_N11_32))) (let ((?v_91 (< ?v_92 4)) (?v_90 (- t_B_N12_35 t_A_N12_34))) (let ((?v_89 (< ?v_90 5)) (?v_88 (- t_C_N12_36 t_B_N12_35))) (let ((?v_87 (< ?v_88 4)) (?v_86 (- t_B_N13_38 t_A_N13_37))) (let ((?v_85 (< ?v_86 5)) (?v_84 (- t_C_N13_39 t_B_N13_38))) (let ((?v_83 (< ?v_84 4)) (?v_82 (- t_B_N14_41 t_A_N14_40))) (let ((?v_81 (< ?v_82 5)) (?v_80 (- t_C_N14_42 t_B_N14_41))) (let ((?v_79 (< ?v_80 4)) (?v_78 (- t_B_N15_44 t_A_N15_43))) (let ((?v_77 (< ?v_78 5)) (?v_76 (- t_C_N15_45 t_B_N15_44))) (let ((?v_75 (< ?v_76 4)) (?v_74 (- t_B_N16_47 t_A_N16_46))) (let ((?v_73 (< ?v_74 5)) (?v_72 (- t_C_N16_48 t_B_N16_47))) (let ((?v_71 (< ?v_72 4)) (?v_70 (- t_B_N17_50 t_A_N17_49))) (let ((?v_69 (< ?v_70 5)) (?v_68 (- t_C_N17_51 t_B_N17_50))) (let ((?v_67 (< ?v_68 4)) (?v_66 (- t_B_N18_53 t_A_N18_52))) (let ((?v_65 (< ?v_66 5)) (?v_64 (- t_C_N18_54 t_B_N18_53))) (let ((?v_63 (< ?v_64 4)) (?v_62 (- t_B_N19_56 t_A_N19_55))) (let ((?v_61 (< ?v_62 5)) (?v_60 (- t_C_N19_57 t_B_N19_56))) (let ((?v_59 (< ?v_60 4)) (?v_136 (- t_B_N20_59 t_A_N20_58))) (let ((?v_135 (< ?v_136 5)) (?v_138 (- t_C_N20_60 t_B_N20_59))) (let ((?v_137 (< ?v_138 4)) (?v_233 (- t_A_N20_58 t_C_N19_57)) (?v_228 (- t_A_N19_55 t_C_N18_54)) (?v_223 (- t_A_N18_52 t_C_N17_51)) (?v_218 (- t_A_N17_49 t_C_N16_48)) (?v_213 (- t_A_N16_46 t_C_N15_45)) (?v_208 (- t_A_N15_43 t_C_N14_42)) (?v_203 (- t_A_N14_40 t_C_N13_39)) (?v_198 (- t_A_N13_37 t_C_N12_36)) (?v_193 (- t_A_N12_34 t_C_N11_33)) (?v_188 (- t_A_N11_31 t_C_N10_30)) (?v_183 (- t_A_N10_28 t_C_N9_27)) (?v_178 (- t_A_N9_25 t_C_N8_24)) (?v_173 (- t_A_N8_22 t_C_N7_21)) (?v_168 (- t_A_N7_19 t_C_N6_18)) (?v_163 (- t_A_N6_16 t_C_N5_15)) (?v_158 (- t_A_N5_13 t_C_N4_12)) (?v_153 (- t_A_N4_10 t_C_N3_9)) (?v_148 (- t_A_N3_7 t_C_N2_6)) (?v_143 (- t_A_N2_4 t_C_N1_3)) (?v_140 (- t_A_N2_4 t_A_N1_1)) (?v_145 (- t_A_N3_7 t_A_N2_4)) (?v_150 (- t_A_N4_10 t_A_N3_7)) (?v_155 (- t_A_N5_13 t_A_N4_10)) (?v_160 (- t_A_N6_16 t_A_N5_13)) (?v_165 (- t_A_N7_19 t_A_N6_16)) (?v_170 (- t_A_N8_22 t_A_N7_19)) (?v_175 (- t_A_N9_25 t_A_N8_22)) (?v_180 (- t_A_N10_28 t_A_N9_25)) (?v_185 (- t_A_N11_31 t_A_N10_28)) (?v_190 (- t_A_N12_34 t_A_N11_31)) (?v_195 (- t_A_N13_37 t_A_N12_34)) (?v_200 (- t_A_N14_40 t_A_N13_37)) (?v_205 (- t_A_N15_43 t_A_N14_40)) (?v_210 (- t_A_N16_46 t_A_N15_43)) (?v_215 (- t_A_N17_49 t_A_N16_46)) (?v_220 (- t_A_N18_52 t_A_N17_49)) (?v_225 (- t_A_N19_55 t_A_N18_52)) (?v_230 (- t_A_N20_58 t_A_N19_55))) (let ((?v_293 (< ?v_140 5)) (?v_141 (> ?v_134 1))) (let ((?v_292 (or ?v_293 ?v_141)) (?v_142 (< ?v_0 6)) (?v_144 (< (- t_C_N1_3 t_A_N1_1) 4))) (let ((?v_291 (or (< ?v_143 1) ?v_144)) (?v_290 (< ?v_145 5)) (?v_146 (> ?v_130 1))) (let ((?v_289 (or ?v_290 ?v_146)) (?v_147 (< ?v_3 6)) (?v_149 (< (- t_C_N2_6 t_A_N2_4) 4))) (let ((?v_288 (or (< ?v_148 1) ?v_149)) (?v_287 (< ?v_150 5)) (?v_151 (> ?v_126 1))) (let ((?v_286 (or ?v_287 ?v_151)) (?v_152 (< ?v_6 6)) (?v_154 (< (- t_C_N3_9 t_A_N3_7) 4))) (let ((?v_285 (or (< ?v_153 1) ?v_154)) (?v_284 (< ?v_155 5)) (?v_156 (> ?v_122 1))) (let ((?v_283 (or ?v_284 ?v_156)) (?v_157 (< ?v_9 6)) (?v_159 (< (- t_C_N4_12 t_A_N4_10) 4))) (let ((?v_282 (or (< ?v_158 1) ?v_159)) (?v_281 (< ?v_160 5)) (?v_161 (> ?v_118 1))) (let ((?v_280 (or ?v_281 ?v_161)) (?v_162 (< ?v_12 6)) (?v_164 (< (- t_C_N5_15 t_A_N5_13) 4))) (let ((?v_279 (or (< ?v_163 1) ?v_164)) (?v_278 (< ?v_165 5)) (?v_166 (> ?v_114 1))) (let ((?v_277 (or ?v_278 ?v_166)) (?v_167 (< ?v_15 6)) (?v_169 (< (- t_C_N6_18 t_A_N6_16) 4))) (let ((?v_276 (or (< ?v_168 1) ?v_169)) (?v_275 (< ?v_170 5)) (?v_171 (> ?v_110 1))) (let ((?v_274 (or ?v_275 ?v_171)) (?v_172 (< ?v_18 6)) (?v_174 (< (- t_C_N7_21 t_A_N7_19) 4))) (let ((?v_273 (or (< ?v_173 1) ?v_174)) (?v_272 (< ?v_175 5)) (?v_176 (> ?v_106 1))) (let ((?v_271 (or ?v_272 ?v_176)) (?v_177 (< ?v_21 6)) (?v_179 (< (- t_C_N8_24 t_A_N8_22) 4))) (let ((?v_270 (or (< ?v_178 1) ?v_179)) (?v_269 (< ?v_180 5)) (?v_181 (> ?v_102 1))) (let ((?v_268 (or ?v_269 ?v_181)) (?v_182 (< ?v_24 6)) (?v_184 (< (- t_C_N9_27 t_A_N9_25) 4))) (let ((?v_267 (or (< ?v_183 1) ?v_184)) (?v_266 (< ?v_185 5)) (?v_186 (> ?v_98 1))) (let ((?v_265 (or ?v_266 ?v_186)) (?v_187 (< ?v_27 6)) (?v_189 (< (- t_C_N10_30 t_A_N10_28) 4))) (let ((?v_264 (or (< ?v_188 1) ?v_189)) (?v_263 (< ?v_190 5)) (?v_191 (> ?v_94 1))) (let ((?v_262 (or ?v_263 ?v_191)) (?v_192 (< ?v_30 6)) (?v_194 (< (- t_C_N11_33 t_A_N11_31) 4))) (let ((?v_261 (or (< ?v_193 1) ?v_194)) (?v_260 (< ?v_195 5)) (?v_196 (> ?v_90 1))) (let ((?v_259 (or ?v_260 ?v_196)) (?v_197 (< ?v_33 6)) (?v_199 (< (- t_C_N12_36 t_A_N12_34) 4))) (let ((?v_258 (or (< ?v_198 1) ?v_199)) (?v_257 (< ?v_200 5)) (?v_201 (> ?v_86 1))) (let ((?v_256 (or ?v_257 ?v_201)) (?v_202 (< ?v_36 6)) (?v_204 (< (- t_C_N13_39 t_A_N13_37) 4))) (let ((?v_255 (or (< ?v_203 1) ?v_204)) (?v_254 (< ?v_205 5)) (?v_206 (> ?v_82 1))) (let ((?v_253 (or ?v_254 ?v_206)) (?v_207 (< ?v_39 6)) (?v_209 (< (- t_C_N14_42 t_A_N14_40) 4))) (let ((?v_252 (or (< ?v_208 1) ?v_209)) (?v_251 (< ?v_210 5)) (?v_211 (> ?v_78 1))) (let ((?v_250 (or ?v_251 ?v_211)) (?v_212 (< ?v_42 6)) (?v_214 (< (- t_C_N15_45 t_A_N15_43) 4))) (let ((?v_249 (or (< ?v_213 1) ?v_214)) (?v_248 (< ?v_215 5)) (?v_216 (> ?v_74 1))) (let ((?v_247 (or ?v_248 ?v_216)) (?v_217 (< ?v_45 6)) (?v_219 (< (- t_C_N16_48 t_A_N16_46) 4))) (let ((?v_246 (or (< ?v_218 1) ?v_219)) (?v_245 (< ?v_220 5)) (?v_221 (> ?v_70 1))) (let ((?v_244 (or ?v_245 ?v_221)) (?v_222 (< ?v_48 6)) (?v_224 (< (- t_C_N17_51 t_A_N17_49) 4))) (let ((?v_243 (or (< ?v_223 1) ?v_224)) (?v_242 (< ?v_225 5)) (?v_226 (> ?v_66 1))) (let ((?v_241 (or ?v_242 ?v_226)) (?v_227 (< ?v_51 6)) (?v_229 (< (- t_C_N18_54 t_A_N18_52) 4))) (let ((?v_240 (or (< ?v_228 1) ?v_229)) (?v_239 (< ?v_230 5)) (?v_231 (> ?v_62 1))) (let ((?v_238 (or ?v_239 ?v_231)) (?v_232 (< ?v_54 6)) (?v_234 (< (- t_C_N19_57 t_A_N19_55) 4))) (let ((?v_237 (or (< ?v_233 1) ?v_234)) (?v_235 (> ?v_136 1))) (let ((?v_294 (or (< ?v_136 1) ?v_235)) (?v_236 (< ?v_57 6)) (?v_296 (- t_C_N20_60 t_A_N20_58))) (let ((?v_295 (< ?v_296 4))) (and (= St_spy_variable (+ 1 t_Init_0)) (>= t_Goal_61 t_Init_0) (>= (- t_C_N19_57 t_Init_0) 0) (>= ?v_56 1) (>= (- t_B_N19_56 t_Init_0) 0) (>= ?v_55 4) (>= (- t_C_N18_54 t_Init_0) 0) (>= ?v_53 1) (>= (- t_B_N18_53 t_Init_0) 0) (>= ?v_52 4) (>= (- t_C_N17_51 t_Init_0) 0) (>= ?v_50 1) (>= (- t_B_N17_50 t_Init_0) 0) (>= ?v_49 4) (>= (- t_C_N16_48 t_Init_0) 0) (>= ?v_47 1) (>= (- t_B_N16_47 t_Init_0) 0) (>= ?v_46 4) (>= (- t_C_N15_45 t_Init_0) 0) (>= ?v_44 1) (>= (- t_B_N15_44 t_Init_0) 0) (>= ?v_43 4) (>= (- t_C_N14_42 t_Init_0) 0) (>= ?v_41 1) (>= (- t_B_N14_41 t_Init_0) 0) (>= ?v_40 4) (>= (- t_C_N13_39 t_Init_0) 0) (>= ?v_38 1) (>= (- t_B_N13_38 t_Init_0) 0) (>= ?v_37 4) (>= (- t_C_N12_36 t_Init_0) 0) (>= ?v_35 1) (>= (- t_B_N12_35 t_Init_0) 0) (>= ?v_34 4) (>= (- t_C_N11_33 t_Init_0) 0) (>= ?v_32 1) (>= (- t_B_N11_32 t_Init_0) 0) (>= ?v_31 4) (>= (- t_C_N10_30 t_Init_0) 0) (>= ?v_29 1) (>= (- t_B_N10_29 t_Init_0) 0) (>= ?v_28 4) (>= (- t_C_N9_27 t_Init_0) 0) (>= ?v_26 1) (>= (- t_B_N9_26 t_Init_0) 0) (>= ?v_25 4) (>= (- t_C_N8_24 t_Init_0) 0) (>= ?v_23 1) (>= (- t_B_N8_23 t_Init_0) 0) (>= ?v_22 4) (>= (- t_C_N7_21 t_Init_0) 0) (>= ?v_20 1) (>= (- t_B_N7_20 t_Init_0) 0) (>= ?v_19 4) (>= (- t_C_N6_18 t_Init_0) 0) (>= ?v_17 1) (>= (- t_B_N6_17 t_Init_0) 0) (>= ?v_16 4) (>= (- t_C_N5_15 t_Init_0) 0) (>= ?v_14 1) (>= (- t_B_N5_14 t_Init_0) 0) (>= ?v_13 4) (>= (- t_C_N4_12 t_Init_0) 0) (>= ?v_11 1) (>= (- t_B_N4_11 t_Init_0) 0) (>= ?v_10 4) (>= (- t_C_N3_9 t_Init_0) 0) (>= ?v_8 1) (>= (- t_B_N3_8 t_Init_0) 0) (>= ?v_7 4) (>= (- t_C_N2_6 t_Init_0) 0) (>= ?v_5 1) (>= (- t_B_N2_5 t_Init_0) 0) (>= ?v_4 4) (>= (- t_C_N1_3 t_Init_0) 0) (>= ?v_2 1) (>= (- t_B_N1_2 t_Init_0) 0) (>= ?v_1 4) (>= (- t_A_N1_1 t_Init_0) 0) (>= ?v_0 5) (>= (- t_A_N2_4 t_Init_0) 0) (>= ?v_3 5) (>= (- t_A_N3_7 t_Init_0) 0) (>= ?v_6 5) (>= (- t_A_N4_10 t_Init_0) 0) (>= ?v_9 5) (>= (- t_A_N5_13 t_Init_0) 0) (>= ?v_12 5) (>= (- t_A_N6_16 t_Init_0) 0) (>= ?v_15 5) (>= (- t_A_N7_19 t_Init_0) 0) (>= ?v_18 5) (>= (- t_A_N8_22 t_Init_0) 0) (>= ?v_21 5) (>= (- t_A_N9_25 t_Init_0) 0) (>= ?v_24 5) (>= (- t_A_N10_28 t_Init_0) 0) (>= ?v_27 5) (>= (- t_A_N11_31 t_Init_0) 0) (>= ?v_30 5) (>= (- t_A_N12_34 t_Init_0) 0) (>= ?v_33 5) (>= (- t_A_N13_37 t_Init_0) 0) (>= ?v_36 5) (>= (- t_A_N14_40 t_Init_0) 0) (>= ?v_39 5) (>= (- t_A_N15_43 t_Init_0) 0) (>= ?v_42 5) (>= (- t_A_N16_46 t_Init_0) 0) (>= ?v_45 5) (>= (- t_A_N17_49 t_Init_0) 0) (>= ?v_48 5) (>= (- t_A_N18_52 t_Init_0) 0) (>= ?v_51 5) (>= (- t_A_N19_55 t_Init_0) 0) (>= ?v_54 5) (>= (- t_A_N20_58 t_Init_0) 0) (>= ?v_57 5) (>= (- t_B_N20_59 t_Init_0) 0) (>= ?v_58 4) (>= (- t_C_N20_60 t_Init_0) 0) (>= ?v_139 1) ?v_133 (>= ?v_0 6) ?v_131 (>= ?v_1 5) (>= ?v_2 2) ?v_129 (>= ?v_3 6) ?v_127 (>= ?v_4 5) (>= ?v_5 2) ?v_125 (>= ?v_6 6) ?v_123 (>= ?v_7 5) (>= ?v_8 2) ?v_121 (>= ?v_9 6) ?v_119 (>= ?v_10 5) (>= ?v_11 2) ?v_117 (>= ?v_12 6) ?v_115 (>= ?v_13 5) (>= ?v_14 2) ?v_113 (>= ?v_15 6) ?v_111 (>= ?v_16 5) (>= ?v_17 2) ?v_109 (>= ?v_18 6) ?v_107 (>= ?v_19 5) (>= ?v_20 2) ?v_105 (>= ?v_21 6) ?v_103 (>= ?v_22 5) (>= ?v_23 2) ?v_101 (>= ?v_24 6) ?v_99 (>= ?v_25 5) (>= ?v_26 2) ?v_97 (>= ?v_27 6) ?v_95 (>= ?v_28 5) (>= ?v_29 2) ?v_93 (>= ?v_30 6) ?v_91 (>= ?v_31 5) (>= ?v_32 2) ?v_89 (>= ?v_33 6) ?v_87 (>= ?v_34 5) (>= ?v_35 2) ?v_85 (>= ?v_36 6) ?v_83 (>= ?v_37 5) (>= ?v_38 2) ?v_81 (>= ?v_39 6) ?v_79 (>= ?v_40 5) (>= ?v_41 2) ?v_77 (>= ?v_42 6) ?v_75 (>= ?v_43 5) (>= ?v_44 2) ?v_73 (>= ?v_45 6) ?v_71 (>= ?v_46 5) (>= ?v_47 2) ?v_69 (>= ?v_48 6) ?v_67 (>= ?v_49 5) (>= ?v_50 2) ?v_65 (>= ?v_51 6) ?v_63 (>= ?v_52 5) (>= ?v_53 2) ?v_61 (>= ?v_54 6) ?v_59 (>= ?v_55 5) (>= ?v_56 2) ?v_135 (>= ?v_57 6) ?v_137 (>= ?v_58 5) ?v_59 ?v_59 (>= ?v_60 0) (>= ?v_233 1) ?v_61 ?v_61 (>= ?v_62 0) (>= (- t_A_N20_58 t_B_N19_56) 4) ?v_63 ?v_63 (>= ?v_64 0) (>= ?v_228 1) ?v_65 ?v_65 (>= ?v_66 0) (>= (- t_A_N19_55 t_B_N18_53) 4) ?v_67 ?v_67 (>= ?v_68 0) (>= ?v_223 1) ?v_69 ?v_69 (>= ?v_70 0) (>= (- t_A_N18_52 t_B_N17_50) 4) ?v_71 ?v_71 (>= ?v_72 0) (>= ?v_218 1) ?v_73 ?v_73 (>= ?v_74 0) (>= (- t_A_N17_49 t_B_N16_47) 4) ?v_75 ?v_75 (>= ?v_76 0) (>= ?v_213 1) ?v_77 ?v_77 (>= ?v_78 0) (>= (- t_A_N16_46 t_B_N15_44) 4) ?v_79 ?v_79 (>= ?v_80 0) (>= ?v_208 1) ?v_81 ?v_81 (>= ?v_82 0) (>= (- t_A_N15_43 t_B_N14_41) 4) ?v_83 ?v_83 (>= ?v_84 0) (>= ?v_203 1) ?v_85 ?v_85 (>= ?v_86 0) (>= (- t_A_N14_40 t_B_N13_38) 4) ?v_87 ?v_87 (>= ?v_88 0) (>= ?v_198 1) ?v_89 ?v_89 (>= ?v_90 0) (>= (- t_A_N13_37 t_B_N12_35) 4) ?v_91 ?v_91 (>= ?v_92 0) (>= ?v_193 1) ?v_93 ?v_93 (>= ?v_94 0) (>= (- t_A_N12_34 t_B_N11_32) 4) ?v_95 ?v_95 (>= ?v_96 0) (>= ?v_188 1) ?v_97 ?v_97 (>= ?v_98 0) (>= (- t_A_N11_31 t_B_N10_29) 4) ?v_99 ?v_99 (>= ?v_100 0) (>= ?v_183 1) ?v_101 ?v_101 (>= ?v_102 0) (>= (- t_A_N10_28 t_B_N9_26) 4) ?v_103 ?v_103 (>= ?v_104 0) (>= ?v_178 1) ?v_105 ?v_105 (>= ?v_106 0) (>= (- t_A_N9_25 t_B_N8_23) 4) ?v_107 ?v_107 (>= ?v_108 0) (>= ?v_173 1) ?v_109 ?v_109 (>= ?v_110 0) (>= (- t_A_N8_22 t_B_N7_20) 4) ?v_111 ?v_111 (>= ?v_112 0) (>= ?v_168 1) ?v_113 ?v_113 (>= ?v_114 0) (>= (- t_A_N7_19 t_B_N6_17) 4) ?v_115 ?v_115 (>= ?v_116 0) (>= ?v_163 1) ?v_117 ?v_117 (>= ?v_118 0) (>= (- t_A_N6_16 t_B_N5_14) 4) ?v_119 ?v_119 (>= ?v_120 0) (>= ?v_158 1) ?v_121 ?v_121 (>= ?v_122 0) (>= (- t_A_N5_13 t_B_N4_11) 4) ?v_123 ?v_123 (>= ?v_124 0) (>= ?v_153 1) ?v_125 ?v_125 (>= ?v_126 0) (>= (- t_A_N4_10 t_B_N3_8) 4) ?v_127 ?v_127 (>= ?v_128 0) (>= ?v_148 1) ?v_129 ?v_129 (>= ?v_130 0) (>= (- t_A_N3_7 t_B_N2_5) 4) ?v_131 ?v_131 (>= ?v_132 0) (>= ?v_143 1) ?v_133 ?v_133 (>= ?v_134 0) (>= (- t_A_N2_4 t_B_N1_2) 4) (>= ?v_140 5) (>= ?v_145 5) (>= ?v_150 5) (>= ?v_155 5) (>= ?v_160 5) (>= ?v_165 5) (>= ?v_170 5) (>= ?v_175 5) (>= ?v_180 5) (>= ?v_185 5) (>= ?v_190 5) (>= ?v_195 5) (>= ?v_200 5) (>= ?v_205 5) (>= ?v_210 5) (>= ?v_215 5) (>= ?v_220 5) (>= ?v_225 5) (>= ?v_230 5) ?v_135 (>= ?v_136 0) ?v_137 (>= ?v_138 0) (>= ?v_139 2) ?v_292 (or ?v_142 ?v_141) (or ?v_144 (< ?v_2 2)) (or ?v_141 ?v_142) ?v_291 ?v_289 (or ?v_147 ?v_146) (or ?v_149 (< ?v_5 2)) (or ?v_146 ?v_147) ?v_288 ?v_286 (or ?v_152 ?v_151) (or ?v_154 (< ?v_8 2)) (or ?v_151 ?v_152) ?v_285 ?v_283 (or ?v_157 ?v_156) (or ?v_159 (< ?v_11 2)) (or ?v_156 ?v_157) ?v_282 ?v_280 (or ?v_162 ?v_161) (or ?v_164 (< ?v_14 2)) (or ?v_161 ?v_162) ?v_279 ?v_277 (or ?v_167 ?v_166) (or ?v_169 (< ?v_17 2)) (or ?v_166 ?v_167) ?v_276 ?v_274 (or ?v_172 ?v_171) (or ?v_174 (< ?v_20 2)) (or ?v_171 ?v_172) ?v_273 ?v_271 (or ?v_177 ?v_176) (or ?v_179 (< ?v_23 2)) (or ?v_176 ?v_177) ?v_270 ?v_268 (or ?v_182 ?v_181) (or ?v_184 (< ?v_26 2)) (or ?v_181 ?v_182) ?v_267 ?v_265 (or ?v_187 ?v_186) (or ?v_189 (< ?v_29 2)) (or ?v_186 ?v_187) ?v_264 ?v_262 (or ?v_192 ?v_191) (or ?v_194 (< ?v_32 2)) (or ?v_191 ?v_192) ?v_261 ?v_259 (or ?v_197 ?v_196) (or ?v_199 (< ?v_35 2)) (or ?v_196 ?v_197) ?v_258 ?v_256 (or ?v_202 ?v_201) (or ?v_204 (< ?v_38 2)) (or ?v_201 ?v_202) ?v_255 ?v_253 (or ?v_207 ?v_206) (or ?v_209 (< ?v_41 2)) (or ?v_206 ?v_207) ?v_252 ?v_250 (or ?v_212 ?v_211) (or ?v_214 (< ?v_44 2)) (or ?v_211 ?v_212) ?v_249 ?v_247 (or ?v_217 ?v_216) (or ?v_219 (< ?v_47 2)) (or ?v_216 ?v_217) ?v_246 ?v_244 (or ?v_222 ?v_221) (or ?v_224 (< ?v_50 2)) (or ?v_221 ?v_222) ?v_243 ?v_241 (or ?v_227 ?v_226) (or ?v_229 (< ?v_53 2)) (or ?v_226 ?v_227) ?v_240 ?v_238 (or ?v_232 ?v_231) (or ?v_234 (< ?v_56 2)) (or ?v_231 ?v_232) ?v_237 ?v_294 (or ?v_236 ?v_235) (or ?v_295 (< ?v_139 2)) (or ?v_235 ?v_236) (or ?v_231 (< ?v_62 1)) ?v_237 ?v_238 (or ?v_231 ?v_239) (or ?v_226 (< ?v_66 1)) ?v_240 ?v_241 (or ?v_226 ?v_242) (or ?v_221 (< ?v_70 1)) ?v_243 ?v_244 (or ?v_221 ?v_245) (or ?v_216 (< ?v_74 1)) ?v_246 ?v_247 (or ?v_216 ?v_248) (or ?v_211 (< ?v_78 1)) ?v_249 ?v_250 (or ?v_211 ?v_251) (or ?v_206 (< ?v_82 1)) ?v_252 ?v_253 (or ?v_206 ?v_254) (or ?v_201 (< ?v_86 1)) ?v_255 ?v_256 (or ?v_201 ?v_257) (or ?v_196 (< ?v_90 1)) ?v_258 ?v_259 (or ?v_196 ?v_260) (or ?v_191 (< ?v_94 1)) ?v_261 ?v_262 (or ?v_191 ?v_263) (or ?v_186 (< ?v_98 1)) ?v_264 ?v_265 (or ?v_186 ?v_266) (or ?v_181 (< ?v_102 1)) ?v_267 ?v_268 (or ?v_181 ?v_269) (or ?v_176 (< ?v_106 1)) ?v_270 ?v_271 (or ?v_176 ?v_272) (or ?v_171 (< ?v_110 1)) ?v_273 ?v_274 (or ?v_171 ?v_275) (or ?v_166 (< ?v_114 1)) ?v_276 ?v_277 (or ?v_166 ?v_278) (or ?v_161 (< ?v_118 1)) ?v_279 ?v_280 (or ?v_161 ?v_281) (or ?v_156 (< ?v_122 1)) ?v_282 ?v_283 (or ?v_156 ?v_284) (or ?v_151 (< ?v_126 1)) ?v_285 ?v_286 (or ?v_151 ?v_287) (or ?v_146 (< ?v_130 1)) ?v_288 ?v_289 (or ?v_146 ?v_290) (or ?v_141 (< ?v_134 1)) ?v_291 ?v_292 (or ?v_141 ?v_293) ?v_294 (or ?v_295 (> ?v_296 4))))))))))))))))))))))))))))))))))))))))))))))))))))))))))))))))))))))))))))))))))))))
(check-sat)
(exit)
